\ENCODING=ISO-8859-1
\Problem name: ilog.cplex

Minimize
 obj1: 107408 x1 + 101942 x2 + 101275 x3 + 92084 x4 + 104303 x5 + 101657 x6
       + 107364 x7 + 106060 x8 + 101278 x9 + 101038 x10 + 93927 x11 + 95627 x12
       + 90512 x13 + 103760 x14 + 107197 x15 + 91201 x16 + 93565 x17
       + 106258 x18 + 97184 x19 + 94533 x20 + 90915 x21 + 93875 x22
       + 102750 x23 + 107330 x24 + 91317 x25 + 103881 x26 + 105665 x27
       + 91413 x28 + 103628 x29 + 108885 x30 + 92498 x31 + 98038 x32
       + 102528 x33 + 105023 x34 + 107264 x35 + 102613 x36 + 103970 x37
       + 100649 x38 + 107455 x39 + 90271 x40 + 106205 x41 + 93396 x42
       + 91430 x43 + 97636 x44 + 107862 x45 + 96071 x46 + 106079 x47
       + 106613 x48 + 105855 x49 + 105203 x50 + 90258 x51 + 107116 x52
       + 102759 x53 + 99966 x54 + 101724 x55 + 97426 x56 + 95841 x57
       + 93747 x58 + 93094 x59 + 93200 x60 + 109169 x61 + 95069 x62 + 96347 x63
       + 100367 x64 + 101143 x65 + 91892 x66 + 104477 x67 + 95077 x68
       + 90227 x69 + 107449 x70 + 106117 x71 + 107337 x72 + 95952 x73
       + 96409 x74 + 105934 x75 + 95637 x76 + 100584 x77 + 93584 x78
       + 96204 x79 + 93473 x80 + 92918 x81 + 108242 x82 + 94165 x83
       + 102858 x84 + 96663 x85 + 103158 x86 + 109055 x87 + 98163 x88
       + 95843 x89 + 96378 x90 + 100200 x91 + 99438 x92 + 107652 x93
       + 102445 x94 + 108292 x95 + 108448 x96 + 101806 x97 + 104212 x98
       + 103462 x99 + 100384 x100 + 104667 x101 + 96419 x102 + 95772 x103
       + 109499 x104 + 96296 x105 + 107813 x106 + 96442 x107 + 97936 x108
       + 109057 x109 + 109908 x110 + 101418 x111 + 93532 x112 + 107527 x113
       + 97328 x114 + 92823 x115 + 104647 x116 + 91193 x117 + 97239 x118
       + 98385 x119 + 107859 x120 + 97837 x121 + 96062 x122 + 94843 x123
       + 101156 x124 + 107794 x125 + 102585 x126 + 96162 x127 + 94754 x128
       + 93616 x129 + 97003 x130 + 96253 x131 + 109125 x132 + 105097 x133
       + 105582 x134 + 106930 x135 + 91193 x136 + 103682 x137 + 103897 x138
       + 93968 x139 + 103273 x140 + 107675 x141 + 97888 x142 + 92589 x143
       + 104288 x144 + 93101 x145 + 97160 x146 + 97619 x147 + 108487 x148
       + 91236 x149 + 95785 x150 + 101596 x151 + 90845 x152 + 102259 x153
       + 103847 x154 + 102905 x155 + 99114 x156 + 108599 x157 + 91581 x158
       + 90360 x159 + 103918 x160 + 101208 x161 + 97214 x162 + 90740 x163
       + 90339 x164 + 107371 x165 + 109447 x166 + 101357 x167 + 107123 x168
       + 109590 x169 + 106046 x170 + 101072 x171 + 102932 x172 + 91674 x173
       + 91076 x174 + 100015 x175 + 92984 x176 + 100361 x177 + 105100 x178
       + 90821 x179 + 93985 x180 + 100435 x181 + 90497 x182 + 102973 x183
       + 90398 x184 + 91178 x185 + 105458 x186 + 98285 x187 + 90114 x188
       + 91509 x189 + 106908 x190 + 108737 x191 + 98246 x192 + 93179 x193
       + 107364 x194 + 94761 x195 + 95989 x196 + 92337 x197 + 100745 x198
       + 103657 x199 + 97868 x200 + 103743 x201 + 92818 x202 + 108064 x203
       + 104806 x204 + 108494 x205 + 108309 x206 + 109330 x207 + 106787 x208
       + 92090 x209 + 106028 x210 + 103875 x211 + 103724 x212 + 109804 x213
       + 101768 x214 + 108572 x215 + 91895 x216 + 97149 x217 + 92851 x218
       + 109845 x219 + 97720 x220 + 104659 x221 + 97888 x222 + 100370 x223
       + 90642 x224 + 98226 x225 + 90660 x226 + 97153 x227 + 92564 x228
       + 108946 x229 + 97966 x230 + 95248 x231 + 102521 x232 + 99700 x233
       + 107900 x234 + 102492 x235 + 92180 x236 + 99643 x237 + 97184 x238
       + 102348 x239 + 100298 x240 + 102357 x241 + 108186 x242 + 106583 x243
       + 104581 x244 + 95445 x245 + 98578 x246 + 105633 x247 + 92338 x248
       + 97764 x249 + 93656 x250 + 95857 x251 + 103159 x252 + 97226 x253
       + 95078 x254 + 99119 x255 + 93527 x256 + 94219 x257 + 100890 x258
       + 90167 x259 + 97840 x260 + 109885 x261 + 108900 x262 + 106210 x263
       + 104440 x264 + 93169 x265 + 93580 x266 + 99193 x267 + 94221 x268
       + 97401 x269 + 91122 x270 + 92420 x271 + 102697 x272 + 90326 x273
       + 97441 x274 + 101604 x275 + 94391 x276 + 90255 x277 + 94722 x278
       + 104523 x279 + 97036 x280 + 105424 x281 + 93529 x282 + 93173 x283
       + 92293 x284 + 93653 x285 + 109559 x286 + 97619 x287 + 99585 x288
       + 95036 x289 + 106779 x290 + 91726 x291 + 100106 x292 + 101685 x293
       + 91999 x294 + 97517 x295 + 109194 x296 + 95420 x297 + 99858 x298
       + 97127 x299 + 96987 x300 + 99660 x301 + 107332 x302 + 107385 x303
       + 109510 x304 + 96491 x305 + 99359 x306 + 103499 x307 + 106590 x308
       + 91679 x309 + 99770 x310 + 90627 x311 + 93961 x312 + 94003 x313
       + 95858 x314 + 95928 x315 + 105793 x316 + 92342 x317 + 94597 x318
       + 97721 x319 + 104841 x320 + 100510 x321 + 101688 x322 + 95669 x323
       + 105064 x324 + 91014 x325 + 98999 x326 + 99518 x327 + 107970 x328
       + 94044 x329 + 96474 x330 + 108800 x331 + 104647 x332 + 105416 x333
       + 97723 x334 + 96123 x335 + 103862 x336 + 105111 x337 + 97301 x338
       + 107450 x339 + 100743 x340 + 96744 x341 + 102062 x342 + 94204 x343
       + 100221 x344 + 97454 x345 + 98984 x346 + 94083 x347 + 94766 x348
       + 97649 x349 + 97533 x350 + 100151 x351 + 106899 x352 + 90459 x353
       + 95880 x354 + 101055 x355 + 103548 x356 + 101909 x357 + 97189 x358
       + 99172 x359 + 91518 x360 + 91184 x361 + 109615 x362 + 92548 x363
       + 95383 x364 + 98964 x365 + 95867 x366 + 92806 x367 + 104690 x368
       + 108221 x369 + 106713 x370 + 99057 x371 + 92999 x372 + 102946 x373
       + 91639 x374 + 101304 x375 + 91771 x376 + 108895 x377 + 102712 x378
       + 98072 x379 + 103671 x380 + 102836 x381 + 102439 x382 + 97644 x383
       + 97234 x384 + 102118 x385 + 95402 x386 + 102293 x387 + 90081 x388
       + 103988 x389 + 92798 x390 + 96916 x391 + 90934 x392 + 96927 x393
       + 96397 x394 + 96607 x395 + 100845 x396 + 104725 x397 + 96406 x398
       + 96455 x399 + 104870 x400 + 108076 x401 + 96343 x402 + 91302 x403
       + 96818 x404 + 98229 x405 + 107274 x406 + 93150 x407 + 91790 x408
       + 92504 x409 + 93610 x410 + 109596 x411 + 93874 x412 + 102503 x413
       + 103169 x414 + 97932 x415 + 99669 x416 + 92356 x417 + 95303 x418
       + 96430 x419 + 92243 x420 + 94668 x421 + 105276 x422 + 104412 x423
       + 100498 x424 + 107475 x425 + 106526 x426 + 102049 x427 + 93366 x428
       + 90130 x429 + 107668 x430 + 91937 x431 + 106443 x432 + 103117 x433
       + 108383 x434 + 103693 x435 + 90840 x436 + 104202 x437 + 101630 x438
       + 97816 x439 + 99186 x440 + 90180 x441 + 103025 x442 + 91736 x443
       + 100442 x444 + 93667 x445 + 101268 x446 + 109475 x447 + 107344 x448
       + 103468 x449 + 99346 x450 + 96895 x451 + 103166 x452 + 96545 x453
       + 99083 x454 + 91835 x455 + 97674 x456 + 109855 x457 + 90080 x458
       + 96439 x459 + 100863 x460 + 101059 x461 + 98145 x462 + 107612 x463
       + 97517 x464 + 108584 x465 + 108052 x466 + 100741 x467 + 95599 x468
       + 103539 x469 + 100751 x470 + 91716 x471 + 107176 x472 + 108668 x473
       + 96169 x474 + 102746 x475 + 101798 x476 + 102838 x477 + 109272 x478
       + 108604 x479 + 109195 x480 + 100641 x481 + 103843 x482 + 99892 x483
       + 106392 x484 + 106488 x485 + 107518 x486 + 91297 x487 + 97181 x488
       + 91160 x489 + 107650 x490 + 94942 x491 + 106567 x492 + 106261 x493
       + 105721 x494 + 95322 x495 + 95672 x496 + 97489 x497 + 91005 x498
       + 104533 x499 + 93128 x500 + 91702 x501 + 109908 x502 + 100705 x503
       + 94467 x504 + 96718 x505 + 102550 x506 + 93186 x507 + 109974 x508
       + 108369 x509 + 102925 x510 + 104529 x511 + 95787 x512 + 96809 x513
       + 108495 x514 + 92172 x515 + 100375 x516 + 97246 x517 + 95278 x518
       + 91149 x519 + 106491 x520 + 99027 x521 + 105261 x522 + 103259 x523
       + 107359 x524 + 91407 x525 + 104424 x526 + 107836 x527 + 105038 x528
       + 104333 x529 + 101688 x530 + 104562 x531 + 98823 x532 + 98254 x533
       + 91790 x534 + 99769 x535 + 101973 x536 + 108196 x537 + 98385 x538
       + 94216 x539 + 106227 x540 + 105266 x541 + 93285 x542 + 96797 x543
       + 92563 x544 + 90663 x545 + 104260 x546 + 98562 x547 + 95527 x548
       + 106837 x549 + 94475 x550 + 95565 x551 + 108555 x552 + 95162 x553
       + 101987 x554 + 98568 x555 + 103907 x556 + 91591 x557 + 95641 x558
       + 96766 x559 + 101086 x560 + 107043 x561 + 94227 x562 + 107362 x563
       + 103227 x564 + 95288 x565 + 102677 x566 + 109600 x567 + 90946 x568
       + 99141 x569 + 95134 x570 + 107376 x571 + 104022 x572 + 102588 x573
       + 102207 x574 + 104110 x575 + 104106 x576 + 103741 x577 + 102896 x578
       + 93744 x579 + 100112 x580 + 101585 x581 + 100425 x582 + 92514 x583
       + 92035 x584 + 98048 x585 + 95629 x586 + 97589 x587 + 108633 x588
       + 96168 x589 + 101536 x590 + 100713 x591 + 99754 x592 + 105022 x593
       + 108470 x594 + 107655 x595 + 95039 x596 + 102530 x597 + 90229 x598
       + 97579 x599 + 237059 x600 + 42176 x601 + 43097 x602 + 38064 x603
       + 41996 x604 + 36679 x605 + 41821 x606 + 38127 x607 + 36325 x608
       + 42664 x609 + 43275 x610 + 38589 x611 + 43206 x612 + 40215 x613
       + 39829 x614 + 37842 x615 + 39771 x616 + 41255 x617 + 36077 x618
       + 36382 x619 + 39930 x620 + 38746 x621 + 42717 x622 + 39082 x623
       + 37546 x624 + 37924 x625 + 42656 x626 + 41827 x627 + 41383 x628
       + 40839 x629 + 42152 x630 + 36324 x631 + 40670 x632 + 39737 x633
       + 37575 x634 + 42587 x635 + 38277 x636 + 43933 x637 + 40848 x638
       + 39045 x639 + 41346 x640 + 38617 x641 + 37922 x642 + 37414 x643
       + 42900 x644 + 40617 x645 + 40621 x646 + 43426 x647 + 42279 x648
       + 43467 x649 + 40958 x650 + 39201 x651 + 37448 x652 + 40181 x653
       + 40537 x654 + 42477 x655 + 38041 x656 + 36982 x657 + 37902 x658
       + 38141 x659 + 38335 x660
Subject To
 c1:   - x4 + x8 - x12 + x13 - x21 + x58  = 0
 c2:   - x64 + x68 - x72 + x73 - x81 + x118  = 0
 c3:   - x124 + x128 - x132 + x133 - x141 + x178  = 0
 c4:   - x184 + x188 - x192 + x193 - x201 + x238  = 0
 c5:   - x244 + x248 - x252 + x253 - x261 + x298  = 0
 c6:   - x304 + x308 - x312 + x313 - x321 + x358  = 0
 c7:   - x364 + x368 - x372 + x373 - x381 + x418  = 0
 c8:   - x424 + x428 - x432 + x433 - x441 + x478  = 0
 c9:   - x484 + x488 - x492 + x493 - x501 + x538  = 0
 c10:  - x544 + x548 - x552 + x553 - x561 + x598  = 0
 c11:  - x1 + x5 - x35 + x54 - x55  = 0
 c12:  - x61 + x65 - x95 + x114 - x115  = 0
 c13:  - x121 + x125 - x155 + x174 - x175  = 0
 c14:  - x181 + x185 - x215 + x234 - x235  = 0
 c15:  - x241 + x245 - x275 + x294 - x295  = 0
 c16:  - x301 + x305 - x335 + x354 - x355  = 0
 c17:  - x361 + x365 - x395 + x414 - x415  = 0
 c18:  - x421 + x425 - x455 + x474 - x475  = 1
 c19:  - x481 + x485 - x515 + x534 - x535  = 0
 c20:  - x541 + x545 - x575 + x594 - x595  = 0
 c21:  x7 + x30 + x31 - x34 - x39 + x43 + x48 + x55  = 0
 c22:  x67 + x90 + x91 - x94 - x99 + x103 + x108 + x115  = 0
 c23:  x127 + x150 + x151 - x154 - x159 + x163 + x168 + x175  = 1
 c24:  x187 + x210 + x211 - x214 - x219 + x223 + x228 + x235  = 0
 c25:  x247 + x270 + x271 - x274 - x279 + x283 + x288 + x295  = 0
 c26:  x307 + x330 + x331 - x334 - x339 + x343 + x348 + x355  = 0
 c27:  x367 + x390 + x391 - x394 - x399 + x403 + x408 + x415  = 0
 c28:  x427 + x450 + x451 - x454 - x459 + x463 + x468 + x475  = 0
 c29:  x487 + x510 + x511 - x514 - x519 + x523 + x528 + x535  = 0
 c30:  x547 + x570 + x571 - x574 - x579 + x583 + x588 + x595  = 0
 c31:  x1 - x6 + x16 + x17 - x23 + x36 - x44  = 0
 c32:  x61 - x66 + x76 + x77 - x83 + x96 - x104  = 0
 c33:  x121 - x126 + x136 + x137 - x143 + x156 - x164  = -1
 c34:  x181 - x186 + x196 + x197 - x203 + x216 - x224  = 0
 c35:  x241 - x246 + x256 + x257 - x263 + x276 - x284  = 1
 c36:  x301 - x306 + x316 + x317 - x323 + x336 - x344  = 0
 c37:  x361 - x366 + x376 + x377 - x383 + x396 - x404  = 1
 c38:  x421 - x426 + x436 + x437 - x443 + x456 - x464  = 0
 c39:  x481 - x486 + x496 + x497 - x503 + x516 - x524  = 0
 c40:  x541 - x546 + x556 + x557 - x563 + x576 - x584  = 0
 c41:  - x9 - x10 - x13 - x22 - x38 + x42 + x49 - x51 - x52  = 0
 c42:  - x69 - x70 - x73 - x82 - x98 + x102 + x109 - x111 - x112  = 1
 c43:  - x129 - x130 - x133 - x142 - x158 + x162 + x169 - x171 - x172  = 0
 c44:  - x189 - x190 - x193 - x202 - x218 + x222 + x229 - x231 - x232  = 0
 c45:  - x249 - x250 - x253 - x262 - x278 + x282 + x289 - x291 - x292  = 0
 c46:  - x309 - x310 - x313 - x322 - x338 + x342 + x349 - x351 - x352  = 0
 c47:  - x369 - x370 - x373 - x382 - x398 + x402 + x409 - x411 - x412  = 0
 c48:  - x429 - x430 - x433 - x442 - x458 + x462 + x469 - x471 - x472  = 0
 c49:  - x489 - x490 - x493 - x502 - x518 + x522 + x529 - x531 - x532  = 0
 c50:  - x549 - x550 - x553 - x562 - x578 + x582 + x589 - x591 - x592  = 0
 c51:  - x15 - x19 + x20 + x22 + x25 - x30 + x47 - x53 + x60  = 1
 c52:  - x75 - x79 + x80 + x82 + x85 - x90 + x107 - x113 + x120  = 0
 c53:  - x135 - x139 + x140 + x142 + x145 - x150 + x167 - x173 + x180  = 0
 c54:  - x195 - x199 + x200 + x202 + x205 - x210 + x227 - x233 + x240  = 0
 c55:  - x255 - x259 + x260 + x262 + x265 - x270 + x287 - x293 + x300  = 0
 c56:  - x315 - x319 + x320 + x322 + x325 - x330 + x347 - x353 + x360  = 0
 c57:  - x375 - x379 + x380 + x382 + x385 - x390 + x407 - x413 + x420  = 0
 c58:  - x435 - x439 + x440 + x442 + x445 - x450 + x467 - x473 + x480  = -1
 c59:  - x495 - x499 + x500 + x502 + x505 - x510 + x527 - x533 + x540  = 0
 c60:  - x555 - x559 + x560 + x562 + x565 - x570 + x587 - x593 + x600  = 0
 c61:  - x18 + x19 - x25 + x26 - x27 - x28 - x33  = 0
 c62:  - x78 + x79 - x85 + x86 - x87 - x88 - x93  = 0
 c63:  - x138 + x139 - x145 + x146 - x147 - x148 - x153  = 0
 c64:  - x198 + x199 - x205 + x206 - x207 - x208 - x213  = 0
 c65:  - x258 + x259 - x265 + x266 - x267 - x268 - x273  = 0
 c66:  - x318 + x319 - x325 + x326 - x327 - x328 - x333  = -1
 c67:  - x378 + x379 - x385 + x386 - x387 - x388 - x393  = -1
 c68:  - x438 + x439 - x445 + x446 - x447 - x448 - x453  = 0
 c69:  - x498 + x499 - x505 + x506 - x507 - x508 - x513  = 0
 c70:  - x558 + x559 - x565 + x566 - x567 - x568 - x573  = 0
 c71:  x2 - x7 - x11 - x24 + x34 + x44  = 0
 c72:  x62 - x67 - x71 - x84 + x94 + x104  = 0
 c73:  x122 - x127 - x131 - x144 + x154 + x164  = 0
 c74:  x182 - x187 - x191 - x204 + x214 + x224  = 0
 c75:  x242 - x247 - x251 - x264 + x274 + x284  = 0
 c76:  x302 - x307 - x311 - x324 + x334 + x344  = 0
 c77:  x362 - x367 - x371 - x384 + x394 + x404  = 0
 c78:  x422 - x427 - x431 - x444 + x454 + x464  = 0
 c79:  x482 - x487 - x491 - x504 + x514 + x524  = 0
 c80:  x542 - x547 - x551 - x564 + x574 + x584  = 0
 c81:  x3 + x6 + x11 + x28 + x32 + x38 - x45 - x48 - x49 - x56 - x58  = 0
 c82:  x63 + x66 + x71 + x88 + x92 + x98 - x105 - x108 - x109 - x116 - x118
        = 0
 c83:  x123 + x126 + x131 + x148 + x152 + x158 - x165 - x168 - x169 - x176
       - x178  = 0
 c84:  x183 + x186 + x191 + x208 + x212 + x218 - x225 - x228 - x229 - x236
       - x238  = 0
 c85:  x243 + x246 + x251 + x268 + x272 + x278 - x285 - x288 - x289 - x296
       - x298  = 0
 c86:  x303 + x306 + x311 + x328 + x332 + x338 - x345 - x348 - x349 - x356
       - x358  = 1
 c87:  x363 + x366 + x371 + x388 + x392 + x398 - x405 - x408 - x409 - x416
       - x418  = 0
 c88:  x423 + x426 + x431 + x448 + x452 + x458 - x465 - x468 - x469 - x476
       - x478  = 0
 c89:  x483 + x486 + x491 + x508 + x512 + x518 - x525 - x528 - x529 - x536
       - x538  = -1
 c90:  x543 + x546 + x551 + x568 + x572 + x578 - x585 - x588 - x589 - x596
       - x598  = 0
 c91:  - x8 - x16 + x18 + x29 + x35 + x39 + x50 + x51 - x57 - x59  = 0
 c92:  - x68 - x76 + x78 + x89 + x95 + x99 + x110 + x111 - x117 - x119  = 0
 c93:  - x128 - x136 + x138 + x149 + x155 + x159 + x170 + x171 - x177 - x179
        = 0
 c94:  - x188 - x196 + x198 + x209 + x215 + x219 + x230 + x231 - x237 - x239
        = -1
 c95:  - x248 - x256 + x258 + x269 + x275 + x279 + x290 + x291 - x297 - x299
        = 0
 c96:  - x308 - x316 + x318 + x329 + x335 + x339 + x350 + x351 - x357 - x359
        = 0
 c97:  - x368 - x376 + x378 + x389 + x395 + x399 + x410 + x411 - x417 - x419
        = 0
 c98:  - x428 - x436 + x438 + x449 + x455 + x459 + x470 + x471 - x477 - x479
        = 0
 c99:  - x488 - x496 + x498 + x509 + x515 + x519 + x530 + x531 - x537 - x539
        = 0
 c100: - x548 - x556 + x558 + x569 + x575 + x579 + x590 + x591 - x597 - x599
        = -1
 c101: - x2 - x5 + x10 + x14 + x15 + x24 - x29 - x31 - x36 + x56  = 0
 c102: - x62 - x65 + x70 + x74 + x75 + x84 - x89 - x91 - x96 + x116  = 0
 c103: - x122 - x125 + x130 + x134 + x135 + x144 - x149 - x151 - x156 + x176
        = 0
 c104: - x182 - x185 + x190 + x194 + x195 + x204 - x209 - x211 - x216 + x236
        = 0
 c105: - x242 - x245 + x250 + x254 + x255 + x264 - x269 - x271 - x276 + x296
        = -1
 c106: - x302 - x305 + x310 + x314 + x315 + x324 - x329 - x331 - x336 + x356
        = 0
 c107: - x362 - x365 + x370 + x374 + x375 + x384 - x389 - x391 - x396 + x416
        = 0
 c108: - x422 - x425 + x430 + x434 + x435 + x444 - x449 - x451 - x456 + x476
        = 0
 c109: - x482 - x485 + x490 + x494 + x495 + x504 - x509 - x511 - x516 + x536
        = 0
 c110: - x542 - x545 + x550 + x554 + x555 + x564 - x569 - x571 - x576 + x596
        = 0
 c111: - x3 + x4 + x9 - x26 + x41 - x43 + x46  = 0
 c112: - x63 + x64 + x69 - x86 + x101 - x103 + x106  = -1
 c113: - x123 + x124 + x129 - x146 + x161 - x163 + x166  = 0
 c114: - x183 + x184 + x189 - x206 + x221 - x223 + x226  = 1
 c115: - x243 + x244 + x249 - x266 + x281 - x283 + x286  = 0
 c116: - x303 + x304 + x309 - x326 + x341 - x343 + x346  = 0
 c117: - x363 + x364 + x369 - x386 + x401 - x403 + x406  = 0
 c118: - x423 + x424 + x429 - x446 + x461 - x463 + x466  = 0
 c119: - x483 + x484 + x489 - x506 + x521 - x523 + x526  = 0
 c120: - x543 + x544 + x549 - x566 + x581 - x583 + x586  = 0
 c121: x12 + x33 - x40 + x45 - x47 - x54 + x59  = 0
 c122: x72 + x93 - x100 + x105 - x107 - x114 + x119  = 0
 c123: x132 + x153 - x160 + x165 - x167 - x174 + x179  = 0
 c124: x192 + x213 - x220 + x225 - x227 - x234 + x239  = 0
 c125: x252 + x273 - x280 + x285 - x287 - x294 + x299  = 0
 c126: x312 + x333 - x340 + x345 - x347 - x354 + x359  = 0
 c127: x372 + x393 - x400 + x405 - x407 - x414 + x419  = 0
 c128: x432 + x453 - x460 + x465 - x467 - x474 + x479  = 0
 c129: x492 + x513 - x520 + x525 - x527 - x534 + x539  = 0
 c130: x552 + x573 - x580 + x585 - x587 - x594 + x599  = 0
 c131: x21 + x23 + x27 + x37 - x42 - x46 - x50 + x52 - x60  = -1
 c132: x81 + x83 + x87 + x97 - x102 - x106 - x110 + x112 - x120  = 0
 c133: x141 + x143 + x147 + x157 - x162 - x166 - x170 + x172 - x180  = 0
 c134: x201 + x203 + x207 + x217 - x222 - x226 - x230 + x232 - x240  = 0
 c135: x261 + x263 + x267 + x277 - x282 - x286 - x290 + x292 - x300  = 0
 c136: x321 + x323 + x327 + x337 - x342 - x346 - x350 + x352 - x360  = 0
 c137: x381 + x383 + x387 + x397 - x402 - x406 - x410 + x412 - x420  = 0
 c138: x441 + x443 + x447 + x457 - x462 - x466 - x470 + x472 - x480  = 0
 c139: x501 + x503 + x507 + x517 - x522 - x526 - x530 + x532 - x540  = 0
 c140: x561 + x563 + x567 + x577 - x582 - x586 - x590 + x592 - x600  = 1
 c141: - x14 - x17 - x20 - x32 - x37 + x40 - x41 + x53 + x57  = 0
 c142: - x74 - x77 - x80 - x92 - x97 + x100 - x101 + x113 + x117  = 0
 c143: - x134 - x137 - x140 - x152 - x157 + x160 - x161 + x173 + x177  = 0
 c144: - x194 - x197 - x200 - x212 - x217 + x220 - x221 + x233 + x237  = 0
 c145: - x254 - x257 - x260 - x272 - x277 + x280 - x281 + x293 + x297  = 0
 c146: - x314 - x317 - x320 - x332 - x337 + x340 - x341 + x353 + x357  = 0
 c147: - x374 - x377 - x380 - x392 - x397 + x400 - x401 + x413 + x417  = 0
 c148: - x434 - x437 - x440 - x452 - x457 + x460 - x461 + x473 + x477  = 0
 c149: - x494 - x497 - x500 - x512 - x517 + x520 - x521 + x533 + x537  = 1
 c150: - x554 - x557 - x560 - x572 - x577 + x580 - x581 + x593 + x597  = 0
 c151: 4 x1 + 4 x61 + 4 x121 + 4 x181 + 4 x241 + 4 x301 + 4 x361 + 4 x421
       + 4 x481 + 4 x541 - 21 x601 <= 0
 c152: 4 x2 + 4 x62 + 4 x122 + 4 x182 + 4 x242 + 4 x302 + 4 x362 + 4 x422
       + 4 x482 + 4 x542 - 20 x602 <= 0
 c153: 4 x3 + 4 x63 + 4 x123 + 4 x183 + 4 x243 + 4 x303 + 4 x363 + 4 x423
       + 4 x483 + 4 x543 - 21 x603 <= 0
 c154: 4 x4 + 4 x64 + 4 x124 + 4 x184 + 4 x244 + 4 x304 + 4 x364 + 4 x424
       + 4 x484 + 4 x544 - 19 x604 <= 0
 c155: 4 x5 + 4 x65 + 4 x125 + 4 x185 + 4 x245 + 4 x305 + 4 x365 + 4 x425
       + 4 x485 + 4 x545 - 21 x605 <= 0
 c156: 4 x6 + 4 x66 + 4 x126 + 4 x186 + 4 x246 + 4 x306 + 4 x366 + 4 x426
       + 4 x486 + 4 x546 - 22 x606 <= 0
 c157: 4 x7 + 4 x67 + 4 x127 + 4 x187 + 4 x247 + 4 x307 + 4 x367 + 4 x427
       + 4 x487 + 4 x547 - 20 x607 <= 0
 c158: 4 x8 + 4 x68 + 4 x128 + 4 x188 + 4 x248 + 4 x308 + 4 x368 + 4 x428
       + 4 x488 + 4 x548 - 19 x608 <= 0
 c159: 4 x9 + 4 x69 + 4 x129 + 4 x189 + 4 x249 + 4 x309 + 4 x369 + 4 x429
       + 4 x489 + 4 x549 - 18 x609 <= 0
 c160: 4 x10 + 4 x70 + 4 x130 + 4 x190 + 4 x250 + 4 x310 + 4 x370 + 4 x430
       + 4 x490 + 4 x550 - 20 x610 <= 0
 c161: 4 x11 + 4 x71 + 4 x131 + 4 x191 + 4 x251 + 4 x311 + 4 x371 + 4 x431
       + 4 x491 + 4 x551 - 19 x611 <= 0
 c162: 4 x12 + 4 x72 + 4 x132 + 4 x192 + 4 x252 + 4 x312 + 4 x372 + 4 x432
       + 4 x492 + 4 x552 - 21 x612 <= 0
 c163: 4 x13 + 4 x73 + 4 x133 + 4 x193 + 4 x253 + 4 x313 + 4 x373 + 4 x433
       + 4 x493 + 4 x553 - 18 x613 <= 0
 c164: 4 x14 + 4 x74 + 4 x134 + 4 x194 + 4 x254 + 4 x314 + 4 x374 + 4 x434
       + 4 x494 + 4 x554 - 22 x614 <= 0
 c165: 4 x15 + 4 x75 + 4 x135 + 4 x195 + 4 x255 + 4 x315 + 4 x375 + 4 x435
       + 4 x495 + 4 x555 - 18 x615 <= 0
 c166: 4 x16 + 4 x76 + 4 x136 + 4 x196 + 4 x256 + 4 x316 + 4 x376 + 4 x436
       + 4 x496 + 4 x556 - 20 x616 <= 0
 c167: 4 x17 + 4 x77 + 4 x137 + 4 x197 + 4 x257 + 4 x317 + 4 x377 + 4 x437
       + 4 x497 + 4 x557 - 22 x617 <= 0
 c168: 4 x18 + 4 x78 + 4 x138 + 4 x198 + 4 x258 + 4 x318 + 4 x378 + 4 x438
       + 4 x498 + 4 x558 - 22 x618 <= 0
 c169: 4 x19 + 4 x79 + 4 x139 + 4 x199 + 4 x259 + 4 x319 + 4 x379 + 4 x439
       + 4 x499 + 4 x559 - 22 x619 <= 0
 c170: 4 x20 + 4 x80 + 4 x140 + 4 x200 + 4 x260 + 4 x320 + 4 x380 + 4 x440
       + 4 x500 + 4 x560 - 22 x620 <= 0
 c171: 4 x21 + 4 x81 + 4 x141 + 4 x201 + 4 x261 + 4 x321 + 4 x381 + 4 x441
       + 4 x501 + 4 x561 - 22 x621 <= 0
 c172: 4 x22 + 4 x82 + 4 x142 + 4 x202 + 4 x262 + 4 x322 + 4 x382 + 4 x442
       + 4 x502 + 4 x562 - 21 x622 <= 0
 c173: 4 x23 + 4 x83 + 4 x143 + 4 x203 + 4 x263 + 4 x323 + 4 x383 + 4 x443
       + 4 x503 + 4 x563 - 19 x623 <= 0
 c174: 4 x24 + 4 x84 + 4 x144 + 4 x204 + 4 x264 + 4 x324 + 4 x384 + 4 x444
       + 4 x504 + 4 x564 - 18 x624 <= 0
 c175: 4 x25 + 4 x85 + 4 x145 + 4 x205 + 4 x265 + 4 x325 + 4 x385 + 4 x445
       + 4 x505 + 4 x565 - 20 x625 <= 0
 c176: 4 x26 + 4 x86 + 4 x146 + 4 x206 + 4 x266 + 4 x326 + 4 x386 + 4 x446
       + 4 x506 + 4 x566 - 20 x626 <= 0
 c177: 4 x27 + 4 x87 + 4 x147 + 4 x207 + 4 x267 + 4 x327 + 4 x387 + 4 x447
       + 4 x507 + 4 x567 - 20 x627 <= 0
 c178: 4 x28 + 4 x88 + 4 x148 + 4 x208 + 4 x268 + 4 x328 + 4 x388 + 4 x448
       + 4 x508 + 4 x568 - 20 x628 <= 0
 c179: 4 x29 + 4 x89 + 4 x149 + 4 x209 + 4 x269 + 4 x329 + 4 x389 + 4 x449
       + 4 x509 + 4 x569 - 20 x629 <= 0
 c180: 4 x30 + 4 x90 + 4 x150 + 4 x210 + 4 x270 + 4 x330 + 4 x390 + 4 x450
       + 4 x510 + 4 x570 - 20 x630 <= 0
 c181: 4 x31 + 4 x91 + 4 x151 + 4 x211 + 4 x271 + 4 x331 + 4 x391 + 4 x451
       + 4 x511 + 4 x571 - 20 x631 <= 0
 c182: 4 x32 + 4 x92 + 4 x152 + 4 x212 + 4 x272 + 4 x332 + 4 x392 + 4 x452
       + 4 x512 + 4 x572 - 20 x632 <= 0
 c183: 4 x33 + 4 x93 + 4 x153 + 4 x213 + 4 x273 + 4 x333 + 4 x393 + 4 x453
       + 4 x513 + 4 x573 - 20 x633 <= 0
 c184: 4 x34 + 4 x94 + 4 x154 + 4 x214 + 4 x274 + 4 x334 + 4 x394 + 4 x454
       + 4 x514 + 4 x574 - 19 x634 <= 0
 c185: 4 x35 + 4 x95 + 4 x155 + 4 x215 + 4 x275 + 4 x335 + 4 x395 + 4 x455
       + 4 x515 + 4 x575 - 20 x635 <= 0
 c186: 4 x36 + 4 x96 + 4 x156 + 4 x216 + 4 x276 + 4 x336 + 4 x396 + 4 x456
       + 4 x516 + 4 x576 - 22 x636 <= 0
 c187: 4 x37 + 4 x97 + 4 x157 + 4 x217 + 4 x277 + 4 x337 + 4 x397 + 4 x457
       + 4 x517 + 4 x577 - 19 x637 <= 0
 c188: 4 x38 + 4 x98 + 4 x158 + 4 x218 + 4 x278 + 4 x338 + 4 x398 + 4 x458
       + 4 x518 + 4 x578 - 22 x638 <= 0
 c189: 4 x39 + 4 x99 + 4 x159 + 4 x219 + 4 x279 + 4 x339 + 4 x399 + 4 x459
       + 4 x519 + 4 x579 - 19 x639 <= 0
 c190: 4 x40 + 4 x100 + 4 x160 + 4 x220 + 4 x280 + 4 x340 + 4 x400 + 4 x460
       + 4 x520 + 4 x580 - 19 x640 <= 0
 c191: 4 x41 + 4 x101 + 4 x161 + 4 x221 + 4 x281 + 4 x341 + 4 x401 + 4 x461
       + 4 x521 + 4 x581 - 22 x641 <= 0
 c192: 4 x42 + 4 x102 + 4 x162 + 4 x222 + 4 x282 + 4 x342 + 4 x402 + 4 x462
       + 4 x522 + 4 x582 - 19 x642 <= 0
 c193: 4 x43 + 4 x103 + 4 x163 + 4 x223 + 4 x283 + 4 x343 + 4 x403 + 4 x463
       + 4 x523 + 4 x583 - 21 x643 <= 0
 c194: 4 x44 + 4 x104 + 4 x164 + 4 x224 + 4 x284 + 4 x344 + 4 x404 + 4 x464
       + 4 x524 + 4 x584 - 22 x644 <= 0
 c195: 4 x45 + 4 x105 + 4 x165 + 4 x225 + 4 x285 + 4 x345 + 4 x405 + 4 x465
       + 4 x525 + 4 x585 - 19 x645 <= 0
 c196: 4 x46 + 4 x106 + 4 x166 + 4 x226 + 4 x286 + 4 x346 + 4 x406 + 4 x466
       + 4 x526 + 4 x586 - 18 x646 <= 0
 c197: 4 x47 + 4 x107 + 4 x167 + 4 x227 + 4 x287 + 4 x347 + 4 x407 + 4 x467
       + 4 x527 + 4 x587 - 20 x647 <= 0
 c198: 4 x48 + 4 x108 + 4 x168 + 4 x228 + 4 x288 + 4 x348 + 4 x408 + 4 x468
       + 4 x528 + 4 x588 - 20 x648 <= 0
 c199: 4 x49 + 4 x109 + 4 x169 + 4 x229 + 4 x289 + 4 x349 + 4 x409 + 4 x469
       + 4 x529 + 4 x589 - 22 x649 <= 0
 c200: 4 x50 + 4 x110 + 4 x170 + 4 x230 + 4 x290 + 4 x350 + 4 x410 + 4 x470
       + 4 x530 + 4 x590 - 18 x650 <= 0
 c201: 4 x51 + 4 x111 + 4 x171 + 4 x231 + 4 x291 + 4 x351 + 4 x411 + 4 x471
       + 4 x531 + 4 x591 - 19 x651 <= 0
 c202: 4 x52 + 4 x112 + 4 x172 + 4 x232 + 4 x292 + 4 x352 + 4 x412 + 4 x472
       + 4 x532 + 4 x592 - 21 x652 <= 0
 c203: 4 x53 + 4 x113 + 4 x173 + 4 x233 + 4 x293 + 4 x353 + 4 x413 + 4 x473
       + 4 x533 + 4 x593 - 21 x653 <= 0
 c204: 4 x54 + 4 x114 + 4 x174 + 4 x234 + 4 x294 + 4 x354 + 4 x414 + 4 x474
       + 4 x534 + 4 x594 - 20 x654 <= 0
 c205: 4 x55 + 4 x115 + 4 x175 + 4 x235 + 4 x295 + 4 x355 + 4 x415 + 4 x475
       + 4 x535 + 4 x595 - 21 x655 <= 0
 c206: 4 x56 + 4 x116 + 4 x176 + 4 x236 + 4 x296 + 4 x356 + 4 x416 + 4 x476
       + 4 x536 + 4 x596 - 21 x656 <= 0
 c207: 4 x57 + 4 x117 + 4 x177 + 4 x237 + 4 x297 + 4 x357 + 4 x417 + 4 x477
       + 4 x537 + 4 x597 - 20 x657 <= 0
 c208: 4 x58 + 4 x118 + 4 x178 + 4 x238 + 4 x298 + 4 x358 + 4 x418 + 4 x478
       + 4 x538 + 4 x598 - 21 x658 <= 0
 c209: 4 x59 + 4 x119 + 4 x179 + 4 x239 + 4 x299 + 4 x359 + 4 x419 + 4 x479
       + 4 x539 + 4 x599 - 22 x659 <= 0
 c210: 4 x60 + 4 x120 + 4 x180 + 4 x240 + 4 x300 + 4 x360 + 4 x420 + 4 x480
       + 4 x540 + 4 x600 - 6 x660 <= 0
Bounds
 0 <= x1 <= 1
 0 <= x2 <= 1
 0 <= x3 <= 1
 0 <= x4 <= 1
 0 <= x5 <= 1
 0 <= x6 <= 1
 0 <= x7 <= 1
 0 <= x8 <= 1
 0 <= x9 <= 1
 0 <= x10 <= 1
 0 <= x11 <= 1
 0 <= x12 <= 1
 0 <= x13 <= 1
 0 <= x14 <= 1
 0 <= x15 <= 1
 0 <= x16 <= 1
 0 <= x17 <= 1
 0 <= x18 <= 1
 0 <= x19 <= 1
 0 <= x20 <= 1
 0 <= x21 <= 1
 0 <= x22 <= 1
 0 <= x23 <= 1
 0 <= x24 <= 1
 0 <= x25 <= 1
 0 <= x26 <= 1
 0 <= x27 <= 1
 0 <= x28 <= 1
 0 <= x29 <= 1
 0 <= x30 <= 1
 0 <= x31 <= 1
 0 <= x32 <= 1
 0 <= x33 <= 1
 0 <= x34 <= 1
 0 <= x35 <= 1
 0 <= x36 <= 1
 0 <= x37 <= 1
 0 <= x38 <= 1
 0 <= x39 <= 1
 0 <= x40 <= 1
 0 <= x41 <= 1
 0 <= x42 <= 1
 0 <= x43 <= 1
 0 <= x44 <= 1
 0 <= x45 <= 1
 0 <= x46 <= 1
 0 <= x47 <= 1
 0 <= x48 <= 1
 0 <= x49 <= 1
 0 <= x50 <= 1
 0 <= x51 <= 1
 0 <= x52 <= 1
 0 <= x53 <= 1
 0 <= x54 <= 1
 0 <= x55 <= 1
 0 <= x56 <= 1
 0 <= x57 <= 1
 0 <= x58 <= 1
 0 <= x59 <= 1
 0 <= x60 <= 1
 0 <= x61 <= 1
 0 <= x62 <= 1
 0 <= x63 <= 1
 0 <= x64 <= 1
 0 <= x65 <= 1
 0 <= x66 <= 1
 0 <= x67 <= 1
 0 <= x68 <= 1
 0 <= x69 <= 1
 0 <= x70 <= 1
 0 <= x71 <= 1
 0 <= x72 <= 1
 0 <= x73 <= 1
 0 <= x74 <= 1
 0 <= x75 <= 1
 0 <= x76 <= 1
 0 <= x77 <= 1
 0 <= x78 <= 1
 0 <= x79 <= 1
 0 <= x80 <= 1
 0 <= x81 <= 1
 0 <= x82 <= 1
 0 <= x83 <= 1
 0 <= x84 <= 1
 0 <= x85 <= 1
 0 <= x86 <= 1
 0 <= x87 <= 1
 0 <= x88 <= 1
 0 <= x89 <= 1
 0 <= x90 <= 1
 0 <= x91 <= 1
 0 <= x92 <= 1
 0 <= x93 <= 1
 0 <= x94 <= 1
 0 <= x95 <= 1
 0 <= x96 <= 1
 0 <= x97 <= 1
 0 <= x98 <= 1
 0 <= x99 <= 1
 0 <= x100 <= 1
 0 <= x101 <= 1
 0 <= x102 <= 1
 0 <= x103 <= 1
 0 <= x104 <= 1
 0 <= x105 <= 1
 0 <= x106 <= 1
 0 <= x107 <= 1
 0 <= x108 <= 1
 0 <= x109 <= 1
 0 <= x110 <= 1
 0 <= x111 <= 1
 0 <= x112 <= 1
 0 <= x113 <= 1
 0 <= x114 <= 1
 0 <= x115 <= 1
 0 <= x116 <= 1
 0 <= x117 <= 1
 0 <= x118 <= 1
 0 <= x119 <= 1
 0 <= x120 <= 1
 0 <= x121 <= 1
 0 <= x122 <= 1
 0 <= x123 <= 1
 0 <= x124 <= 1
 0 <= x125 <= 1
 0 <= x126 <= 1
 0 <= x127 <= 1
 0 <= x128 <= 1
 0 <= x129 <= 1
 0 <= x130 <= 1
 0 <= x131 <= 1
 0 <= x132 <= 1
 0 <= x133 <= 1
 0 <= x134 <= 1
 0 <= x135 <= 1
 0 <= x136 <= 1
 0 <= x137 <= 1
 0 <= x138 <= 1
 0 <= x139 <= 1
 0 <= x140 <= 1
 0 <= x141 <= 1
 0 <= x142 <= 1
 0 <= x143 <= 1
 0 <= x144 <= 1
 0 <= x145 <= 1
 0 <= x146 <= 1
 0 <= x147 <= 1
 0 <= x148 <= 1
 0 <= x149 <= 1
 0 <= x150 <= 1
 0 <= x151 <= 1
 0 <= x152 <= 1
 0 <= x153 <= 1
 0 <= x154 <= 1
 0 <= x155 <= 1
 0 <= x156 <= 1
 0 <= x157 <= 1
 0 <= x158 <= 1
 0 <= x159 <= 1
 0 <= x160 <= 1
 0 <= x161 <= 1
 0 <= x162 <= 1
 0 <= x163 <= 1
 0 <= x164 <= 1
 0 <= x165 <= 1
 0 <= x166 <= 1
 0 <= x167 <= 1
 0 <= x168 <= 1
 0 <= x169 <= 1
 0 <= x170 <= 1
 0 <= x171 <= 1
 0 <= x172 <= 1
 0 <= x173 <= 1
 0 <= x174 <= 1
 0 <= x175 <= 1
 0 <= x176 <= 1
 0 <= x177 <= 1
 0 <= x178 <= 1
 0 <= x179 <= 1
 0 <= x180 <= 1
 0 <= x181 <= 1
 0 <= x182 <= 1
 0 <= x183 <= 1
 0 <= x184 <= 1
 0 <= x185 <= 1
 0 <= x186 <= 1
 0 <= x187 <= 1
 0 <= x188 <= 1
 0 <= x189 <= 1
 0 <= x190 <= 1
 0 <= x191 <= 1
 0 <= x192 <= 1
 0 <= x193 <= 1
 0 <= x194 <= 1
 0 <= x195 <= 1
 0 <= x196 <= 1
 0 <= x197 <= 1
 0 <= x198 <= 1
 0 <= x199 <= 1
 0 <= x200 <= 1
 0 <= x201 <= 1
 0 <= x202 <= 1
 0 <= x203 <= 1
 0 <= x204 <= 1
 0 <= x205 <= 1
 0 <= x206 <= 1
 0 <= x207 <= 1
 0 <= x208 <= 1
 0 <= x209 <= 1
 0 <= x210 <= 1
 0 <= x211 <= 1
 0 <= x212 <= 1
 0 <= x213 <= 1
 0 <= x214 <= 1
 0 <= x215 <= 1
 0 <= x216 <= 1
 0 <= x217 <= 1
 0 <= x218 <= 1
 0 <= x219 <= 1
 0 <= x220 <= 1
 0 <= x221 <= 1
 0 <= x222 <= 1
 0 <= x223 <= 1
 0 <= x224 <= 1
 0 <= x225 <= 1
 0 <= x226 <= 1
 0 <= x227 <= 1
 0 <= x228 <= 1
 0 <= x229 <= 1
 0 <= x230 <= 1
 0 <= x231 <= 1
 0 <= x232 <= 1
 0 <= x233 <= 1
 0 <= x234 <= 1
 0 <= x235 <= 1
 0 <= x236 <= 1
 0 <= x237 <= 1
 0 <= x238 <= 1
 0 <= x239 <= 1
 0 <= x240 <= 1
 0 <= x241 <= 1
 0 <= x242 <= 1
 0 <= x243 <= 1
 0 <= x244 <= 1
 0 <= x245 <= 1
 0 <= x246 <= 1
 0 <= x247 <= 1
 0 <= x248 <= 1
 0 <= x249 <= 1
 0 <= x250 <= 1
 0 <= x251 <= 1
 0 <= x252 <= 1
 0 <= x253 <= 1
 0 <= x254 <= 1
 0 <= x255 <= 1
 0 <= x256 <= 1
 0 <= x257 <= 1
 0 <= x258 <= 1
 0 <= x259 <= 1
 0 <= x260 <= 1
 0 <= x261 <= 1
 0 <= x262 <= 1
 0 <= x263 <= 1
 0 <= x264 <= 1
 0 <= x265 <= 1
 0 <= x266 <= 1
 0 <= x267 <= 1
 0 <= x268 <= 1
 0 <= x269 <= 1
 0 <= x270 <= 1
 0 <= x271 <= 1
 0 <= x272 <= 1
 0 <= x273 <= 1
 0 <= x274 <= 1
 0 <= x275 <= 1
 0 <= x276 <= 1
 0 <= x277 <= 1
 0 <= x278 <= 1
 0 <= x279 <= 1
 0 <= x280 <= 1
 0 <= x281 <= 1
 0 <= x282 <= 1
 0 <= x283 <= 1
 0 <= x284 <= 1
 0 <= x285 <= 1
 0 <= x286 <= 1
 0 <= x287 <= 1
 0 <= x288 <= 1
 0 <= x289 <= 1
 0 <= x290 <= 1
 0 <= x291 <= 1
 0 <= x292 <= 1
 0 <= x293 <= 1
 0 <= x294 <= 1
 0 <= x295 <= 1
 0 <= x296 <= 1
 0 <= x297 <= 1
 0 <= x298 <= 1
 0 <= x299 <= 1
 0 <= x300 <= 1
 0 <= x301 <= 1
 0 <= x302 <= 1
 0 <= x303 <= 1
 0 <= x304 <= 1
 0 <= x305 <= 1
 0 <= x306 <= 1
 0 <= x307 <= 1
 0 <= x308 <= 1
 0 <= x309 <= 1
 0 <= x310 <= 1
 0 <= x311 <= 1
 0 <= x312 <= 1
 0 <= x313 <= 1
 0 <= x314 <= 1
 0 <= x315 <= 1
 0 <= x316 <= 1
 0 <= x317 <= 1
 0 <= x318 <= 1
 0 <= x319 <= 1
 0 <= x320 <= 1
 0 <= x321 <= 1
 0 <= x322 <= 1
 0 <= x323 <= 1
 0 <= x324 <= 1
 0 <= x325 <= 1
 0 <= x326 <= 1
 0 <= x327 <= 1
 0 <= x328 <= 1
 0 <= x329 <= 1
 0 <= x330 <= 1
 0 <= x331 <= 1
 0 <= x332 <= 1
 0 <= x333 <= 1
 0 <= x334 <= 1
 0 <= x335 <= 1
 0 <= x336 <= 1
 0 <= x337 <= 1
 0 <= x338 <= 1
 0 <= x339 <= 1
 0 <= x340 <= 1
 0 <= x341 <= 1
 0 <= x342 <= 1
 0 <= x343 <= 1
 0 <= x344 <= 1
 0 <= x345 <= 1
 0 <= x346 <= 1
 0 <= x347 <= 1
 0 <= x348 <= 1
 0 <= x349 <= 1
 0 <= x350 <= 1
 0 <= x351 <= 1
 0 <= x352 <= 1
 0 <= x353 <= 1
 0 <= x354 <= 1
 0 <= x355 <= 1
 0 <= x356 <= 1
 0 <= x357 <= 1
 0 <= x358 <= 1
 0 <= x359 <= 1
 0 <= x360 <= 1
 0 <= x361 <= 1
 0 <= x362 <= 1
 0 <= x363 <= 1
 0 <= x364 <= 1
 0 <= x365 <= 1
 0 <= x366 <= 1
 0 <= x367 <= 1
 0 <= x368 <= 1
 0 <= x369 <= 1
 0 <= x370 <= 1
 0 <= x371 <= 1
 0 <= x372 <= 1
 0 <= x373 <= 1
 0 <= x374 <= 1
 0 <= x375 <= 1
 0 <= x376 <= 1
 0 <= x377 <= 1
 0 <= x378 <= 1
 0 <= x379 <= 1
 0 <= x380 <= 1
 0 <= x381 <= 1
 0 <= x382 <= 1
 0 <= x383 <= 1
 0 <= x384 <= 1
 0 <= x385 <= 1
 0 <= x386 <= 1
 0 <= x387 <= 1
 0 <= x388 <= 1
 0 <= x389 <= 1
 0 <= x390 <= 1
 0 <= x391 <= 1
 0 <= x392 <= 1
 0 <= x393 <= 1
 0 <= x394 <= 1
 0 <= x395 <= 1
 0 <= x396 <= 1
 0 <= x397 <= 1
 0 <= x398 <= 1
 0 <= x399 <= 1
 0 <= x400 <= 1
 0 <= x401 <= 1
 0 <= x402 <= 1
 0 <= x403 <= 1
 0 <= x404 <= 1
 0 <= x405 <= 1
 0 <= x406 <= 1
 0 <= x407 <= 1
 0 <= x408 <= 1
 0 <= x409 <= 1
 0 <= x410 <= 1
 0 <= x411 <= 1
 0 <= x412 <= 1
 0 <= x413 <= 1
 0 <= x414 <= 1
 0 <= x415 <= 1
 0 <= x416 <= 1
 0 <= x417 <= 1
 0 <= x418 <= 1
 0 <= x419 <= 1
 0 <= x420 <= 1
 0 <= x421 <= 1
 0 <= x422 <= 1
 0 <= x423 <= 1
 0 <= x424 <= 1
 0 <= x425 <= 1
 0 <= x426 <= 1
 0 <= x427 <= 1
 0 <= x428 <= 1
 0 <= x429 <= 1
 0 <= x430 <= 1
 0 <= x431 <= 1
 0 <= x432 <= 1
 0 <= x433 <= 1
 0 <= x434 <= 1
 0 <= x435 <= 1
 0 <= x436 <= 1
 0 <= x437 <= 1
 0 <= x438 <= 1
 0 <= x439 <= 1
 0 <= x440 <= 1
 0 <= x441 <= 1
 0 <= x442 <= 1
 0 <= x443 <= 1
 0 <= x444 <= 1
 0 <= x445 <= 1
 0 <= x446 <= 1
 0 <= x447 <= 1
 0 <= x448 <= 1
 0 <= x449 <= 1
 0 <= x450 <= 1
 0 <= x451 <= 1
 0 <= x452 <= 1
 0 <= x453 <= 1
 0 <= x454 <= 1
 0 <= x455 <= 1
 0 <= x456 <= 1
 0 <= x457 <= 1
 0 <= x458 <= 1
 0 <= x459 <= 1
 0 <= x460 <= 1
 0 <= x461 <= 1
 0 <= x462 <= 1
 0 <= x463 <= 1
 0 <= x464 <= 1
 0 <= x465 <= 1
 0 <= x466 <= 1
 0 <= x467 <= 1
 0 <= x468 <= 1
 0 <= x469 <= 1
 0 <= x470 <= 1
 0 <= x471 <= 1
 0 <= x472 <= 1
 0 <= x473 <= 1
 0 <= x474 <= 1
 0 <= x475 <= 1
 0 <= x476 <= 1
 0 <= x477 <= 1
 0 <= x478 <= 1
 0 <= x479 <= 1
 0 <= x480 <= 1
 0 <= x481 <= 1
 0 <= x482 <= 1
 0 <= x483 <= 1
 0 <= x484 <= 1
 0 <= x485 <= 1
 0 <= x486 <= 1
 0 <= x487 <= 1
 0 <= x488 <= 1
 0 <= x489 <= 1
 0 <= x490 <= 1
 0 <= x491 <= 1
 0 <= x492 <= 1
 0 <= x493 <= 1
 0 <= x494 <= 1
 0 <= x495 <= 1
 0 <= x496 <= 1
 0 <= x497 <= 1
 0 <= x498 <= 1
 0 <= x499 <= 1
 0 <= x500 <= 1
 0 <= x501 <= 1
 0 <= x502 <= 1
 0 <= x503 <= 1
 0 <= x504 <= 1
 0 <= x505 <= 1
 0 <= x506 <= 1
 0 <= x507 <= 1
 0 <= x508 <= 1
 0 <= x509 <= 1
 0 <= x510 <= 1
 0 <= x511 <= 1
 0 <= x512 <= 1
 0 <= x513 <= 1
 0 <= x514 <= 1
 0 <= x515 <= 1
 0 <= x516 <= 1
 0 <= x517 <= 1
 0 <= x518 <= 1
 0 <= x519 <= 1
 0 <= x520 <= 1
 0 <= x521 <= 1
 0 <= x522 <= 1
 0 <= x523 <= 1
 0 <= x524 <= 1
 0 <= x525 <= 1
 0 <= x526 <= 1
 0 <= x527 <= 1
 0 <= x528 <= 1
 0 <= x529 <= 1
 0 <= x530 <= 1
 0 <= x531 <= 1
 0 <= x532 <= 1
 0 <= x533 <= 1
 0 <= x534 <= 1
 0 <= x535 <= 1
 0 <= x536 <= 1
 0 <= x537 <= 1
 0 <= x538 <= 1
 0 <= x539 <= 1
 0 <= x540 <= 1
 0 <= x541 <= 1
 0 <= x542 <= 1
 0 <= x543 <= 1
 0 <= x544 <= 1
 0 <= x545 <= 1
 0 <= x546 <= 1
 0 <= x547 <= 1
 0 <= x548 <= 1
 0 <= x549 <= 1
 0 <= x550 <= 1
 0 <= x551 <= 1
 0 <= x552 <= 1
 0 <= x553 <= 1
 0 <= x554 <= 1
 0 <= x555 <= 1
 0 <= x556 <= 1
 0 <= x557 <= 1
 0 <= x558 <= 1
 0 <= x559 <= 1
 0 <= x560 <= 1
 0 <= x561 <= 1
 0 <= x562 <= 1
 0 <= x563 <= 1
 0 <= x564 <= 1
 0 <= x565 <= 1
 0 <= x566 <= 1
 0 <= x567 <= 1
 0 <= x568 <= 1
 0 <= x569 <= 1
 0 <= x570 <= 1
 0 <= x571 <= 1
 0 <= x572 <= 1
 0 <= x573 <= 1
 0 <= x574 <= 1
 0 <= x575 <= 1
 0 <= x576 <= 1
 0 <= x577 <= 1
 0 <= x578 <= 1
 0 <= x579 <= 1
 0 <= x580 <= 1
 0 <= x581 <= 1
 0 <= x582 <= 1
 0 <= x583 <= 1
 0 <= x584 <= 1
 0 <= x585 <= 1
 0 <= x586 <= 1
 0 <= x587 <= 1
 0 <= x588 <= 1
 0 <= x589 <= 1
 0 <= x590 <= 1
 0 <= x591 <= 1
 0 <= x592 <= 1
 0 <= x593 <= 1
 0 <= x594 <= 1
 0 <= x595 <= 1
 0 <= x596 <= 1
 0 <= x597 <= 1
 0 <= x598 <= 1
 0 <= x599 <= 1
 0 <= x600 <= 1
 0 <= x601 <= 1
 0 <= x602 <= 1
 0 <= x603 <= 1
 0 <= x604 <= 1
 0 <= x605 <= 1
 0 <= x606 <= 1
 0 <= x607 <= 1
 0 <= x608 <= 1
 0 <= x609 <= 1
 0 <= x610 <= 1
 0 <= x611 <= 1
 0 <= x612 <= 1
 0 <= x613 <= 1
 0 <= x614 <= 1
 0 <= x615 <= 1
 0 <= x616 <= 1
 0 <= x617 <= 1
 0 <= x618 <= 1
 0 <= x619 <= 1
 0 <= x620 <= 1
 0 <= x621 <= 1
 0 <= x622 <= 1
 0 <= x623 <= 1
 0 <= x624 <= 1
 0 <= x625 <= 1
 0 <= x626 <= 1
 0 <= x627 <= 1
 0 <= x628 <= 1
 0 <= x629 <= 1
 0 <= x630 <= 1
 0 <= x631 <= 1
 0 <= x632 <= 1
 0 <= x633 <= 1
 0 <= x634 <= 1
 0 <= x635 <= 1
 0 <= x636 <= 1
 0 <= x637 <= 1
 0 <= x638 <= 1
 0 <= x639 <= 1
 0 <= x640 <= 1
 0 <= x641 <= 1
 0 <= x642 <= 1
 0 <= x643 <= 1
 0 <= x644 <= 1
 0 <= x645 <= 1
 0 <= x646 <= 1
 0 <= x647 <= 1
 0 <= x648 <= 1
 0 <= x649 <= 1
 0 <= x650 <= 1
 0 <= x651 <= 1
 0 <= x652 <= 1
 0 <= x653 <= 1
 0 <= x654 <= 1
 0 <= x655 <= 1
 0 <= x656 <= 1
 0 <= x657 <= 1
 0 <= x658 <= 1
 0 <= x659 <= 1
 0 <= x660 <= 1
Binaries
 x601  x602  x603  x604  x605  x606  x607  x608  x609  x610  x611  x612  x613 
 x614  x615  x616  x617  x618  x619  x620  x621  x622  x623  x624  x625  x626 
 x627  x628  x629  x630  x631  x632  x633  x634  x635  x636  x637  x638  x639 
 x640  x641  x642  x643  x644  x645  x646  x647  x648  x649  x650  x651  x652 
 x653  x654  x655  x656  x657  x658  x659  x660 
End
